p edge 758 3376
e 2 1
e 4 1
e 5 1
e 3 2
e 4 2
e 5 2
e 6 2
e 5 3
e 6 3
e 5 4
e 7 4
e 8 4
e 6 5
e 7 5
e 8 5
e 9 5
e 8 6
e 9 6
e 8 7
e 10 7
e 11 7
e 9 8
e 10 8
e 11 8
e 12 8
e 11 9
e 12 9
e 11 10
e 13 10
e 14 10
e 12 11
e 13 11
e 14 11
e 15 11
e 14 12
e 15 12
e 14 13
e 58 13
e 59 13
e 15 14
e 58 14
e 59 14
e 60 14
e 59 15
e 60 15
e 17 16
e 70 16
e 71 16
e 18 17
e 70 17
e 71 17
e 72 17
e 19 18
e 71 18
e 72 18
e 73 18
e 20 19
e 72 19
e 73 19
e 74 19
e 21 20
e 73 20
e 74 20
e 75 20
e 22 21
e 74 21
e 75 21
e 76 21
e 23 22
e 75 22
e 76 22
e 77 22
e 24 23
e 76 23
e 77 23
e 78 23
e 25 24
e 77 24
e 78 24
e 79 24
e 26 25
e 78 25
e 79 25
e 80 25
e 27 26
e 79 26
e 80 26
e 81 26
e 28 27
e 80 27
e 81 27
e 82 27
e 29 28
e 81 28
e 82 28
e 83 28
e 30 29
e 82 29
e 83 29
e 84 29
e 31 30
e 83 30
e 84 30
e 85 30
e 32 31
e 84 31
e 85 31
e 86 31
e 33 32
e 85 32
e 86 32
e 87 32
e 34 33
e 86 33
e 87 33
e 88 33
e 35 34
e 87 34
e 88 34
e 89 34
e 36 35
e 88 35
e 89 35
e 90 35
e 37 36
e 89 36
e 90 36
e 91 36
e 38 37
e 90 37
e 91 37
e 92 37
e 39 38
e 91 38
e 92 38
e 93 38
e 40 39
e 92 39
e 93 39
e 94 39
e 41 40
e 93 40
e 94 40
e 95 40
e 42 41
e 94 41
e 95 41
e 96 41
e 43 42
e 95 42
e 96 42
e 97 42
e 44 43
e 96 43
e 97 43
e 98 43
e 45 44
e 97 44
e 98 44
e 99 44
e 46 45
e 98 45
e 99 45
e 100 45
e 47 46
e 99 46
e 100 46
e 101 46
e 48 47
e 100 47
e 101 47
e 102 47
e 49 48
e 101 48
e 102 48
e 103 48
e 50 49
e 102 49
e 103 49
e 104 49
e 51 50
e 103 50
e 104 50
e 105 50
e 52 51
e 104 51
e 105 51
e 106 51
e 53 52
e 105 52
e 106 52
e 107 52
e 54 53
e 106 53
e 107 53
e 108 53
e 55 54
e 107 54
e 108 54
e 109 54
e 56 55
e 108 55
e 109 55
e 110 55
e 57 56
e 109 56
e 110 56
e 111 56
e 58 57
e 110 57
e 111 57
e 112 57
e 59 58
e 111 58
e 112 58
e 113 58
e 60 59
e 112 59
e 113 59
e 114 59
e 61 60
e 113 60
e 114 60
e 115 60
e 62 61
e 114 61
e 115 61
e 116 61
e 63 62
e 115 62
e 116 62
e 117 62
e 64 63
e 116 63
e 117 63
e 118 63
e 65 64
e 117 64
e 118 64
e 119 64
e 66 65
e 118 65
e 119 65
e 120 65
e 67 66
e 119 66
e 120 66
e 121 66
e 68 67
e 120 67
e 121 67
e 122 67
e 69 68
e 121 68
e 122 68
e 123 68
e 122 69
e 123 69
e 71 70
e 124 70
e 125 70
e 72 71
e 124 71
e 125 71
e 126 71
e 73 72
e 125 72
e 126 72
e 127 72
e 74 73
e 126 73
e 127 73
e 128 73
e 75 74
e 127 74
e 128 74
e 129 74
e 76 75
e 128 75
e 129 75
e 130 75
e 77 76
e 129 76
e 130 76
e 131 76
e 78 77
e 130 77
e 131 77
e 132 77
e 79 78
e 131 78
e 132 78
e 133 78
e 80 79
e 132 79
e 133 79
e 134 79
e 81 80
e 133 80
e 134 80
e 135 80
e 82 81
e 134 81
e 135 81
e 136 81
e 83 82
e 135 82
e 136 82
e 137 82
e 84 83
e 136 83
e 137 83
e 138 83
e 85 84
e 137 84
e 138 84
e 139 84
e 86 85
e 138 85
e 139 85
e 140 85
e 87 86
e 139 86
e 140 86
e 141 86
e 88 87
e 140 87
e 141 87
e 142 87
e 89 88
e 141 88
e 142 88
e 143 88
e 90 89
e 142 89
e 143 89
e 144 89
e 91 90
e 143 90
e 144 90
e 145 90
e 92 91
e 144 91
e 145 91
e 146 91
e 93 92
e 145 92
e 146 92
e 147 92
e 94 93
e 146 93
e 147 93
e 148 93
e 95 94
e 147 94
e 148 94
e 149 94
e 96 95
e 148 95
e 149 95
e 150 95
e 97 96
e 149 96
e 150 96
e 151 96
e 98 97
e 150 97
e 151 97
e 152 97
e 99 98
e 151 98
e 152 98
e 153 98
e 100 99
e 152 99
e 153 99
e 154 99
e 101 100
e 153 100
e 154 100
e 155 100
e 102 101
e 154 101
e 155 101
e 156 101
e 103 102
e 155 102
e 156 102
e 157 102
e 104 103
e 156 103
e 157 103
e 158 103
e 105 104
e 157 104
e 158 104
e 159 104
e 106 105
e 158 105
e 159 105
e 160 105
e 107 106
e 159 106
e 160 106
e 161 106
e 108 107
e 160 107
e 161 107
e 162 107
e 109 108
e 161 108
e 162 108
e 163 108
e 110 109
e 162 109
e 163 109
e 164 109
e 111 110
e 163 110
e 164 110
e 165 110
e 112 111
e 164 111
e 165 111
e 166 111
e 113 112
e 165 112
e 166 112
e 167 112
e 114 113
e 166 113
e 167 113
e 168 113
e 115 114
e 167 114
e 168 114
e 169 114
e 116 115
e 168 115
e 169 115
e 170 115
e 117 116
e 169 116
e 170 116
e 171 116
e 118 117
e 170 117
e 171 117
e 172 117
e 119 118
e 171 118
e 172 118
e 173 118
e 120 119
e 172 119
e 173 119
e 174 119
e 121 120
e 173 120
e 174 120
e 175 120
e 122 121
e 174 121
e 175 121
e 176 121
e 123 122
e 175 122
e 176 122
e 177 122
e 176 123
e 177 123
e 125 124
e 178 124
e 179 124
e 126 125
e 178 125
e 179 125
e 180 125
e 127 126
e 179 126
e 180 126
e 181 126
e 128 127
e 180 127
e 181 127
e 182 127
e 129 128
e 181 128
e 182 128
e 183 128
e 130 129
e 182 129
e 183 129
e 184 129
e 131 130
e 183 130
e 184 130
e 185 130
e 132 131
e 184 131
e 185 131
e 186 131
e 133 132
e 185 132
e 186 132
e 187 132
e 134 133
e 186 133
e 187 133
e 188 133
e 135 134
e 187 134
e 188 134
e 189 134
e 136 135
e 188 135
e 189 135
e 190 135
e 137 136
e 189 136
e 190 136
e 191 136
e 138 137
e 190 137
e 191 137
e 192 137
e 139 138
e 191 138
e 192 138
e 193 138
e 140 139
e 192 139
e 193 139
e 194 139
e 141 140
e 193 140
e 194 140
e 195 140
e 142 141
e 194 141
e 195 141
e 196 141
e 143 142
e 195 142
e 196 142
e 197 142
e 144 143
e 196 143
e 197 143
e 198 143
e 145 144
e 197 144
e 198 144
e 199 144
e 146 145
e 198 145
e 199 145
e 200 145
e 147 146
e 199 146
e 200 146
e 201 146
e 148 147
e 200 147
e 201 147
e 202 147
e 149 148
e 201 148
e 202 148
e 203 148
e 150 149
e 202 149
e 203 149
e 204 149
e 151 150
e 203 150
e 204 150
e 205 150
e 152 151
e 204 151
e 205 151
e 206 151
e 153 152
e 205 152
e 206 152
e 207 152
e 154 153
e 206 153
e 207 153
e 208 153
e 155 154
e 207 154
e 208 154
e 209 154
e 156 155
e 208 155
e 209 155
e 210 155
e 157 156
e 209 156
e 210 156
e 211 156
e 158 157
e 210 157
e 211 157
e 212 157
e 159 158
e 211 158
e 212 158
e 213 158
e 160 159
e 212 159
e 213 159
e 214 159
e 161 160
e 213 160
e 214 160
e 215 160
e 162 161
e 214 161
e 215 161
e 216 161
e 163 162
e 215 162
e 216 162
e 217 162
e 164 163
e 216 163
e 217 163
e 218 163
e 165 164
e 217 164
e 218 164
e 219 164
e 166 165
e 218 165
e 219 165
e 220 165
e 167 166
e 219 166
e 220 166
e 221 166
e 168 167
e 220 167
e 221 167
e 222 167
e 169 168
e 221 168
e 222 168
e 223 168
e 170 169
e 222 169
e 223 169
e 224 169
e 171 170
e 223 170
e 224 170
e 225 170
e 172 171
e 224 171
e 225 171
e 226 171
e 173 172
e 226 172
e 227 172
e 228 172
e 174 173
e 227 173
e 228 173
e 229 173
e 175 174
e 228 174
e 229 174
e 230 174
e 176 175
e 229 175
e 230 175
e 231 175
e 177 176
e 230 176
e 231 176
e 232 176
e 231 177
e 232 177
e 179 178
e 233 178
e 234 178
e 180 179
e 233 179
e 234 179
e 235 179
e 181 180
e 234 180
e 235 180
e 236 180
e 182 181
e 235 181
e 236 181
e 237 181
e 183 182
e 236 182
e 237 182
e 238 182
e 184 183
e 237 183
e 238 183
e 239 183
e 185 184
e 238 184
e 239 184
e 240 184
e 186 185
e 239 185
e 240 185
e 241 185
e 187 186
e 240 186
e 241 186
e 242 186
e 188 187
e 241 187
e 242 187
e 243 187
e 189 188
e 242 188
e 243 188
e 244 188
e 190 189
e 243 189
e 244 189
e 245 189
e 191 190
e 244 190
e 245 190
e 246 190
e 192 191
e 245 191
e 246 191
e 247 191
e 193 192
e 246 192
e 247 192
e 248 192
e 194 193
e 247 193
e 248 193
e 249 193
e 195 194
e 248 194
e 249 194
e 250 194
e 196 195
e 249 195
e 250 195
e 251 195
e 197 196
e 250 196
e 251 196
e 252 196
e 198 197
e 251 197
e 252 197
e 253 197
e 199 198
e 252 198
e 253 198
e 254 198
e 200 199
e 253 199
e 254 199
e 255 199
e 201 200
e 254 200
e 255 200
e 256 200
e 202 201
e 255 201
e 256 201
e 257 201
e 203 202
e 256 202
e 257 202
e 258 202
e 204 203
e 257 203
e 258 203
e 259 203
e 205 204
e 258 204
e 259 204
e 260 204
e 206 205
e 259 205
e 260 205
e 261 205
e 207 206
e 260 206
e 261 206
e 262 206
e 208 207
e 261 207
e 262 207
e 263 207
e 209 208
e 262 208
e 263 208
e 264 208
e 210 209
e 263 209
e 264 209
e 265 209
e 211 210
e 264 210
e 265 210
e 266 210
e 212 211
e 265 211
e 266 211
e 267 211
e 213 212
e 266 212
e 267 212
e 268 212
e 214 213
e 267 213
e 268 213
e 269 213
e 215 214
e 268 214
e 269 214
e 270 214
e 216 215
e 269 215
e 270 215
e 271 215
e 217 216
e 270 216
e 271 216
e 272 216
e 218 217
e 271 217
e 272 217
e 273 217
e 219 218
e 272 218
e 273 218
e 274 218
e 220 219
e 273 219
e 274 219
e 275 219
e 221 220
e 274 220
e 275 220
e 276 220
e 222 221
e 275 221
e 276 221
e 277 221
e 223 222
e 276 222
e 277 222
e 278 222
e 224 223
e 277 223
e 278 223
e 279 223
e 225 224
e 278 224
e 279 224
e 280 224
e 226 225
e 279 225
e 280 225
e 281 225
e 227 226
e 280 226
e 281 226
e 282 226
e 228 227
e 281 227
e 282 227
e 283 227
e 229 228
e 282 228
e 283 228
e 284 228
e 230 229
e 283 229
e 284 229
e 285 229
e 231 230
e 284 230
e 285 230
e 286 230
e 232 231
e 285 231
e 286 231
e 287 231
e 286 232
e 287 232
e 234 233
e 235 234
e 236 235
e 237 236
e 238 237
e 239 238
e 240 239
e 241 240
e 242 241
e 243 242
e 244 243
e 245 244
e 246 245
e 247 246
e 248 247
e 249 248
e 250 249
e 251 250
e 252 251
e 253 252
e 254 253
e 255 254
e 256 255
e 257 256
e 288 256
e 258 257
e 288 257
e 259 258
e 288 258
e 289 258
e 290 258
e 260 259
e 290 259
e 261 260
e 290 260
e 291 260
e 316 260
e 262 261
e 316 261
e 317 261
e 263 262
e 316 262
e 317 262
e 318 262
e 264 263
e 317 263
e 318 263
e 319 263
e 265 264
e 318 264
e 319 264
e 320 264
e 266 265
e 319 265
e 320 265
e 321 265
e 267 266
e 320 266
e 321 266
e 322 266
e 268 267
e 321 267
e 322 267
e 323 267
e 269 268
e 322 268
e 323 268
e 324 268
e 270 269
e 323 269
e 324 269
e 325 269
e 271 270
e 324 270
e 325 270
e 326 270
e 272 271
e 325 271
e 326 271
e 327 271
e 273 272
e 326 272
e 327 272
e 328 272
e 274 273
e 327 273
e 328 273
e 329 273
e 275 274
e 328 274
e 329 274
e 330 274
e 276 275
e 329 275
e 330 275
e 331 275
e 277 276
e 330 276
e 331 276
e 332 276
e 278 277
e 331 277
e 332 277
e 333 277
e 279 278
e 332 278
e 333 278
e 334 278
e 280 279
e 333 279
e 334 279
e 335 279
e 281 280
e 334 280
e 335 280
e 336 280
e 282 281
e 335 281
e 336 281
e 337 281
e 283 282
e 336 282
e 337 282
e 338 282
e 284 283
e 337 283
e 338 283
e 339 283
e 285 284
e 338 284
e 339 284
e 340 284
e 286 285
e 339 285
e 340 285
e 341 285
e 287 286
e 340 286
e 341 286
e 342 286
e 341 287
e 342 287
e 289 288
e 290 289
e 291 290
e 292 291
e 316 291
e 293 292
e 316 292
e 317 292
e 317 293
e 349 293
e 295 294
e 296 294
e 383 294
e 401 294
e 296 295
e 297 295
e 359 295
e 360 295
e 383 295
e 384 295
e 402 295
e 297 296
e 298 297
e 402 297
e 403 297
e 299 298
e 403 298
e 417 298
e 300 299
e 417 299
e 418 299
e 301 300
e 302 300
e 418 300
e 302 301
e 418 301
e 419 301
e 420 301
e 430 301
e 440 301
e 303 302
e 430 302
e 440 302
e 304 303
e 440 303
e 441 303
e 450 303
e 305 304
e 450 304
e 451 304
e 459 304
e 306 305
e 459 305
e 460 305
e 467 305
e 307 306
e 308 306
e 467 306
e 474 306
e 308 307
e 309 307
e 310 307
e 474 307
e 309 308
e 310 308
e 474 308
e 475 308
e 480 308
e 485 308
e 310 309
e 311 309
e 311 310
e 480 310
e 485 310
e 490 310
e 312 311
e 490 311
e 495 311
e 313 312
e 490 312
e 495 312
e 500 312
e 314 313
e 495 313
e 500 313
e 505 313
e 315 314
e 500 314
e 505 314
e 510 314
e 343 315
e 505 315
e 510 315
e 515 315
e 317 316
e 318 317
e 349 317
e 319 318
e 349 318
e 350 318
e 320 319
e 349 319
e 350 319
e 351 319
e 321 320
e 350 320
e 351 320
e 352 320
e 322 321
e 351 321
e 352 321
e 353 321
e 323 322
e 352 322
e 353 322
e 354 322
e 324 323
e 353 323
e 354 323
e 355 323
e 325 324
e 354 324
e 355 324
e 356 324
e 326 325
e 355 325
e 356 325
e 357 325
e 327 326
e 356 326
e 357 326
e 358 326
e 328 327
e 357 327
e 358 327
e 359 327
e 329 328
e 358 328
e 359 328
e 360 328
e 330 329
e 359 329
e 360 329
e 361 329
e 331 330
e 360 330
e 361 330
e 362 330
e 332 331
e 361 331
e 362 331
e 363 331
e 333 332
e 362 332
e 363 332
e 364 332
e 334 333
e 363 333
e 364 333
e 365 333
e 335 334
e 364 334
e 365 334
e 366 334
e 336 335
e 365 335
e 366 335
e 367 335
e 337 336
e 366 336
e 367 336
e 368 336
e 338 337
e 367 337
e 368 337
e 369 337
e 339 338
e 368 338
e 369 338
e 370 338
e 340 339
e 369 339
e 370 339
e 371 339
e 341 340
e 370 340
e 371 340
e 372 340
e 342 341
e 371 341
e 372 341
e 373 341
e 372 342
e 373 342
e 344 343
e 510 343
e 515 343
e 520 343
e 345 344
e 515 344
e 520 344
e 525 344
e 346 345
e 520 345
e 525 345
e 347 346
e 525 346
e 530 346
e 534 346
e 348 347
e 530 347
e 534 347
e 538 347
e 534 348
e 538 348
e 542 348
e 543 348
e 350 349
e 374 349
e 351 350
e 374 350
e 375 350
e 352 351
e 375 351
e 376 351
e 353 352
e 376 352
e 377 352
e 378 352
e 354 353
e 378 353
e 379 353
e 355 354
e 378 354
e 379 354
e 380 354
e 356 355
e 379 355
e 380 355
e 381 355
e 357 356
e 380 356
e 381 356
e 382 356
e 358 357
e 381 357
e 382 357
e 383 357
e 359 358
e 382 358
e 383 358
e 384 358
e 360 359
e 383 359
e 384 359
e 385 359
e 402 359
e 361 360
e 384 360
e 385 360
e 386 360
e 402 360
e 362 361
e 385 361
e 386 361
e 387 361
e 363 362
e 386 362
e 387 362
e 388 362
e 364 363
e 387 363
e 388 363
e 389 363
e 365 364
e 388 364
e 389 364
e 390 364
e 366 365
e 389 365
e 390 365
e 391 365
e 367 366
e 390 366
e 391 366
e 392 366
e 368 367
e 391 367
e 392 367
e 393 367
e 369 368
e 392 368
e 393 368
e 394 368
e 370 369
e 393 369
e 394 369
e 395 369
e 371 370
e 394 370
e 395 370
e 396 370
e 372 371
e 395 371
e 396 371
e 397 371
e 373 372
e 396 372
e 397 372
e 398 372
e 397 373
e 398 373
e 375 374
e 376 375
e 377 376
e 378 377
e 379 378
e 399 378
e 380 379
e 399 379
e 381 380
e 399 380
e 400 380
e 382 381
e 400 381
e 401 381
e 383 382
e 401 382
e 384 383
e 401 383
e 385 384
e 386 385
e 402 385
e 403 385
e 387 386
e 402 386
e 403 386
e 404 386
e 388 387
e 403 387
e 404 387
e 405 387
e 389 388
e 404 388
e 405 388
e 406 388
e 390 389
e 405 389
e 406 389
e 407 389
e 391 390
e 406 390
e 407 390
e 408 390
e 392 391
e 407 391
e 408 391
e 409 391
e 393 392
e 409 392
e 410 392
e 394 393
e 410 393
e 411 393
e 412 393
e 395 394
e 411 394
e 412 394
e 413 394
e 396 395
e 412 395
e 413 395
e 414 395
e 397 396
e 413 396
e 414 396
e 415 396
e 398 397
e 414 397
e 415 397
e 416 397
e 415 398
e 416 398
e 400 399
e 401 400
e 403 402
e 404 403
e 417 403
e 405 404
e 417 404
e 418 404
e 406 405
e 417 405
e 418 405
e 419 405
e 407 406
e 418 406
e 419 406
e 420 406
e 408 407
e 419 407
e 420 407
e 421 407
e 409 408
e 420 408
e 421 408
e 422 408
e 410 409
e 421 409
e 422 409
e 423 409
e 411 410
e 422 410
e 423 410
e 424 410
e 412 411
e 423 411
e 424 411
e 425 411
e 413 412
e 424 412
e 425 412
e 426 412
e 414 413
e 425 413
e 426 413
e 427 413
e 415 414
e 426 414
e 427 414
e 428 414
e 416 415
e 427 415
e 428 415
e 429 415
e 428 416
e 429 416
e 418 417
e 419 418
e 420 419
e 430 419
e 421 420
e 430 420
e 431 420
e 422 421
e 430 421
e 431 421
e 432 421
e 423 422
e 431 422
e 432 422
e 433 422
e 424 423
e 432 423
e 433 423
e 434 423
e 425 424
e 433 424
e 434 424
e 435 424
e 426 425
e 434 425
e 435 425
e 436 425
e 427 426
e 435 426
e 436 426
e 437 426
e 428 427
e 436 427
e 437 427
e 438 427
e 429 428
e 437 428
e 438 428
e 439 428
e 438 429
e 439 429
e 431 430
e 440 430
e 441 430
e 432 431
e 440 431
e 441 431
e 442 431
e 433 432
e 441 432
e 442 432
e 443 432
e 434 433
e 442 433
e 443 433
e 444 433
e 435 434
e 443 434
e 444 434
e 445 434
e 436 435
e 444 435
e 445 435
e 446 435
e 437 436
e 445 436
e 446 436
e 447 436
e 438 437
e 446 437
e 447 437
e 448 437
e 439 438
e 447 438
e 448 438
e 449 438
e 448 439
e 449 439
e 441 440
e 450 440
e 442 441
e 450 441
e 451 441
e 443 442
e 450 442
e 451 442
e 452 442
e 444 443
e 451 443
e 452 443
e 453 443
e 445 444
e 452 444
e 453 444
e 454 444
e 446 445
e 453 445
e 454 445
e 455 445
e 447 446
e 454 446
e 455 446
e 456 446
e 448 447
e 455 447
e 456 447
e 457 447
e 449 448
e 456 448
e 457 448
e 458 448
e 457 449
e 458 449
e 451 450
e 459 450
e 452 451
e 459 451
e 460 451
e 453 452
e 459 452
e 460 452
e 461 452
e 454 453
e 460 453
e 461 453
e 462 453
e 455 454
e 461 454
e 462 454
e 463 454
e 456 455
e 462 455
e 463 455
e 464 455
e 457 456
e 463 456
e 464 456
e 465 456
e 458 457
e 464 457
e 465 457
e 466 457
e 465 458
e 466 458
e 460 459
e 467 459
e 461 460
e 467 460
e 468 460
e 462 461
e 467 461
e 468 461
e 469 461
e 463 462
e 468 462
e 469 462
e 470 462
e 464 463
e 469 463
e 470 463
e 471 463
e 465 464
e 470 464
e 471 464
e 472 464
e 466 465
e 471 465
e 472 465
e 473 465
e 472 466
e 473 466
e 468 467
e 474 467
e 469 468
e 474 468
e 475 468
e 470 469
e 474 469
e 475 469
e 476 469
e 471 470
e 475 470
e 476 470
e 477 470
e 472 471
e 476 471
e 477 471
e 478 471
e 473 472
e 477 472
e 478 472
e 479 472
e 478 473
e 479 473
e 475 474
e 480 474
e 476 475
e 480 475
e 481 475
e 477 476
e 480 476
e 481 476
e 482 476
e 478 477
e 481 477
e 482 477
e 483 477
e 479 478
e 482 478
e 483 478
e 484 478
e 483 479
e 484 479
e 481 480
e 485 480
e 486 480
e 482 481
e 485 481
e 486 481
e 487 481
e 483 482
e 486 482
e 487 482
e 488 482
e 484 483
e 487 483
e 488 483
e 489 483
e 488 484
e 489 484
e 486 485
e 490 485
e 491 485
e 487 486
e 490 486
e 491 486
e 492 486
e 488 487
e 491 487
e 492 487
e 493 487
e 489 488
e 492 488
e 493 488
e 494 488
e 493 489
e 494 489
e 491 490
e 495 490
e 496 490
e 492 491
e 495 491
e 496 491
e 497 491
e 493 492
e 496 492
e 497 492
e 498 492
e 494 493
e 497 493
e 498 493
e 499 493
e 498 494
e 499 494
e 496 495
e 500 495
e 501 495
e 497 496
e 500 496
e 501 496
e 502 496
e 498 497
e 501 497
e 502 497
e 503 497
e 499 498
e 502 498
e 503 498
e 504 498
e 503 499
e 504 499
e 501 500
e 505 500
e 506 500
e 502 501
e 505 501
e 506 501
e 507 501
e 503 502
e 506 502
e 507 502
e 508 502
e 504 503
e 507 503
e 508 503
e 509 503
e 508 504
e 509 504
e 506 505
e 510 505
e 511 505
e 507 506
e 510 506
e 511 506
e 512 506
e 508 507
e 511 507
e 512 507
e 513 507
e 509 508
e 512 508
e 513 508
e 514 508
e 513 509
e 514 509
e 511 510
e 515 510
e 516 510
e 512 511
e 515 511
e 516 511
e 517 511
e 513 512
e 516 512
e 517 512
e 518 512
e 514 513
e 517 513
e 518 513
e 519 513
e 518 514
e 519 514
e 516 515
e 520 515
e 521 515
e 517 516
e 520 516
e 521 516
e 522 516
e 518 517
e 521 517
e 522 517
e 523 517
e 519 518
e 522 518
e 523 518
e 524 518
e 523 519
e 524 519
e 521 520
e 525 520
e 526 520
e 522 521
e 525 521
e 526 521
e 527 521
e 523 522
e 526 522
e 527 522
e 528 522
e 524 523
e 527 523
e 528 523
e 529 523
e 528 524
e 529 524
e 526 525
e 530 525
e 527 526
e 530 526
e 531 526
e 528 527
e 530 527
e 531 527
e 532 527
e 529 528
e 531 528
e 532 528
e 533 528
e 532 529
e 533 529
e 531 530
e 534 530
e 535 530
e 532 531
e 534 531
e 535 531
e 536 531
e 533 532
e 535 532
e 536 532
e 537 532
e 536 533
e 537 533
e 535 534
e 538 534
e 539 534
e 536 535
e 538 535
e 539 535
e 540 535
e 537 536
e 539 536
e 540 536
e 541 536
e 540 537
e 541 537
e 539 538
e 542 538
e 543 538
e 544 538
e 540 539
e 543 539
e 544 539
e 545 539
e 541 540
e 544 540
e 545 540
e 546 540
e 545 541
e 546 541
e 543 542
e 547 542
e 548 542
e 544 543
e 547 543
e 548 543
e 549 543
e 545 544
e 548 544
e 549 544
e 550 544
e 546 545
e 549 545
e 550 545
e 551 545
e 550 546
e 551 546
e 548 547
e 552 547
e 553 547
e 549 548
e 552 548
e 553 548
e 554 548
e 550 549
e 553 549
e 554 549
e 555 549
e 551 550
e 554 550
e 555 550
e 556 550
e 555 551
e 556 551
e 553 552
e 557 552
e 558 552
e 554 553
e 557 553
e 558 553
e 559 553
e 555 554
e 558 554
e 559 554
e 560 554
e 556 555
e 559 555
e 560 555
e 561 555
e 560 556
e 561 556
e 558 557
e 562 557
e 563 557
e 559 558
e 562 558
e 563 558
e 564 558
e 560 559
e 563 559
e 564 559
e 565 559
e 561 560
e 564 560
e 565 560
e 566 560
e 565 561
e 566 561
e 563 562
e 567 562
e 568 562
e 564 563
e 567 563
e 568 563
e 569 563
e 565 564
e 568 564
e 569 564
e 570 564
e 566 565
e 569 565
e 570 565
e 571 565
e 570 566
e 571 566
e 568 567
e 572 567
e 573 567
e 569 568
e 572 568
e 573 568
e 574 568
e 570 569
e 573 569
e 574 569
e 575 569
e 571 570
e 574 570
e 575 570
e 576 570
e 575 571
e 576 571
e 573 572
e 577 572
e 578 572
e 574 573
e 577 573
e 578 573
e 579 573
e 575 574
e 578 574
e 579 574
e 580 574
e 576 575
e 579 575
e 580 575
e 581 575
e 580 576
e 581 576
e 578 577
e 582 577
e 583 577
e 579 578
e 582 578
e 583 578
e 584 578
e 580 579
e 583 579
e 584 579
e 585 579
e 581 580
e 584 580
e 585 580
e 586 580
e 585 581
e 586 581
e 583 582
e 587 582
e 588 582
e 584 583
e 587 583
e 588 583
e 589 583
e 585 584
e 588 584
e 589 584
e 590 584
e 586 585
e 589 585
e 590 585
e 591 585
e 590 586
e 591 586
e 588 587
e 592 587
e 593 587
e 589 588
e 592 588
e 593 588
e 594 588
e 590 589
e 593 589
e 594 589
e 595 589
e 591 590
e 594 590
e 595 590
e 596 590
e 595 591
e 596 591
e 593 592
e 597 592
e 598 592
e 594 593
e 597 593
e 598 593
e 599 593
e 595 594
e 598 594
e 599 594
e 600 594
e 596 595
e 599 595
e 600 595
e 601 595
e 600 596
e 601 596
e 598 597
e 602 597
e 603 597
e 599 598
e 602 598
e 603 598
e 604 598
e 600 599
e 603 599
e 604 599
e 605 599
e 601 600
e 604 600
e 605 600
e 606 600
e 605 601
e 606 601
e 603 602
e 607 602
e 608 602
e 604 603
e 607 603
e 608 603
e 609 603
e 605 604
e 608 604
e 609 604
e 610 604
e 606 605
e 609 605
e 610 605
e 611 605
e 610 606
e 611 606
e 608 607
e 612 607
e 613 607
e 609 608
e 612 608
e 613 608
e 614 608
e 610 609
e 613 609
e 614 609
e 615 609
e 611 610
e 614 610
e 615 610
e 616 610
e 615 611
e 616 611
e 613 612
e 617 612
e 618 612
e 614 613
e 617 613
e 618 613
e 619 613
e 615 614
e 618 614
e 619 614
e 620 614
e 616 615
e 619 615
e 620 615
e 621 615
e 620 616
e 621 616
e 618 617
e 622 617
e 623 617
e 619 618
e 622 618
e 623 618
e 624 618
e 620 619
e 623 619
e 624 619
e 625 619
e 621 620
e 624 620
e 625 620
e 626 620
e 625 621
e 626 621
e 623 622
e 627 622
e 628 622
e 624 623
e 627 623
e 628 623
e 629 623
e 625 624
e 628 624
e 629 624
e 630 624
e 626 625
e 629 625
e 630 625
e 631 625
e 630 626
e 631 626
e 628 627
e 632 627
e 633 627
e 629 628
e 632 628
e 633 628
e 634 628
e 630 629
e 633 629
e 634 629
e 635 629
e 631 630
e 634 630
e 635 630
e 636 630
e 635 631
e 636 631
e 633 632
e 637 632
e 638 632
e 634 633
e 637 633
e 638 633
e 639 633
e 635 634
e 638 634
e 639 634
e 640 634
e 636 635
e 639 635
e 640 635
e 641 635
e 640 636
e 641 636
e 638 637
e 642 637
e 643 637
e 639 638
e 642 638
e 643 638
e 644 638
e 640 639
e 643 639
e 644 639
e 645 639
e 641 640
e 644 640
e 645 640
e 646 640
e 645 641
e 646 641
e 643 642
e 647 642
e 648 642
e 644 643
e 647 643
e 648 643
e 649 643
e 645 644
e 648 644
e 649 644
e 650 644
e 646 645
e 649 645
e 650 645
e 651 645
e 650 646
e 651 646
e 648 647
e 652 647
e 653 647
e 649 648
e 652 648
e 653 648
e 654 648
e 650 649
e 653 649
e 654 649
e 655 649
e 651 650
e 654 650
e 655 650
e 656 650
e 655 651
e 656 651
e 653 652
e 657 652
e 658 652
e 654 653
e 657 653
e 658 653
e 659 653
e 655 654
e 658 654
e 659 654
e 660 654
e 656 655
e 659 655
e 660 655
e 661 655
e 660 656
e 661 656
e 658 657
e 662 657
e 663 657
e 659 658
e 662 658
e 663 658
e 664 658
e 660 659
e 663 659
e 664 659
e 665 659
e 661 660
e 664 660
e 665 660
e 666 660
e 665 661
e 666 661
e 663 662
e 667 662
e 668 662
e 664 663
e 667 663
e 668 663
e 669 663
e 665 664
e 668 664
e 669 664
e 670 664
e 666 665
e 669 665
e 670 665
e 671 665
e 670 666
e 671 666
e 668 667
e 672 667
e 673 667
e 669 668
e 672 668
e 673 668
e 674 668
e 670 669
e 673 669
e 674 669
e 675 669
e 671 670
e 674 670
e 675 670
e 676 670
e 675 671
e 676 671
e 677 671
e 673 672
e 678 672
e 679 672
e 674 673
e 678 673
e 679 673
e 680 673
e 675 674
e 679 674
e 680 674
e 681 674
e 676 675
e 680 675
e 681 675
e 682 675
e 677 676
e 681 676
e 682 676
e 683 676
e 682 677
e 683 677
e 679 678
e 684 678
e 685 678
e 680 679
e 684 679
e 685 679
e 686 679
e 681 680
e 685 680
e 686 680
e 687 680
e 682 681
e 686 681
e 687 681
e 688 681
e 683 682
e 687 682
e 688 682
e 689 682
e 688 683
e 689 683
e 690 683
e 685 684
e 691 684
e 692 684
e 686 685
e 691 685
e 692 685
e 693 685
e 687 686
e 692 686
e 693 686
e 694 686
e 688 687
e 693 687
e 694 687
e 695 687
e 689 688
e 694 688
e 695 688
e 696 688
e 690 689
e 695 689
e 696 689
e 697 689
e 696 690
e 697 690
e 692 691
e 698 691
e 699 691
e 693 692
e 698 692
e 699 692
e 700 692
e 694 693
e 699 693
e 700 693
e 701 693
e 695 694
e 700 694
e 701 694
e 702 694
e 696 695
e 701 695
e 702 695
e 703 695
e 697 696
e 702 696
e 703 696
e 704 696
e 703 697
e 704 697
e 699 698
e 705 698
e 706 698
e 700 699
e 705 699
e 706 699
e 707 699
e 701 700
e 706 700
e 707 700
e 708 700
e 702 701
e 707 701
e 708 701
e 709 701
e 703 702
e 708 702
e 709 702
e 710 702
e 704 703
e 709 703
e 710 703
e 711 703
e 710 704
e 711 704
e 712 704
e 706 705
e 713 705
e 714 705
e 707 706
e 713 706
e 714 706
e 715 706
e 708 707
e 714 707
e 715 707
e 716 707
e 709 708
e 715 708
e 716 708
e 717 708
e 710 709
e 716 709
e 717 709
e 718 709
e 711 710
e 717 710
e 718 710
e 719 710
e 712 711
e 718 711
e 719 711
e 720 711
e 719 712
e 720 712
e 714 713
e 721 713
e 722 713
e 715 714
e 721 714
e 722 714
e 723 714
e 716 715
e 722 715
e 723 715
e 724 715
e 717 716
e 723 716
e 724 716
e 725 716
e 718 717
e 724 717
e 725 717
e 726 717
e 719 718
e 725 718
e 726 718
e 727 718
e 720 719
e 726 719
e 727 719
e 728 719
e 727 720
e 728 720
e 722 721
e 723 722
e 724 723
e 725 724
e 726 725
e 727 726
e 729 726
e 730 726
e 728 727
e 729 727
e 730 727
e 731 727
e 730 728
e 731 728
e 730 729
e 732 729
e 733 729
e 731 730
e 732 730
e 733 730
e 734 730
e 733 731
e 734 731
e 733 732
e 735 732
e 736 732
e 734 733
e 735 733
e 736 733
e 737 733
e 736 734
e 737 734
e 736 735
e 738 735
e 739 735
e 737 736
e 738 736
e 739 736
e 740 736
e 739 737
e 740 737
e 739 738
e 741 738
e 742 738
e 740 739
e 741 739
e 742 739
e 743 739
e 742 740
e 743 740
e 742 741
e 744 741
e 745 741
e 743 742
e 744 742
e 745 742
e 746 742
e 745 743
e 746 743
e 745 744
e 747 744
e 748 744
e 746 745
e 747 745
e 748 745
e 749 745
e 748 746
e 749 746
e 748 747
e 750 747
e 751 747
e 749 748
e 750 748
e 751 748
e 752 748
e 751 749
e 752 749
e 751 750
e 753 750
e 754 750
e 752 751
e 753 751
e 754 751
e 755 751
e 754 752
e 755 752
e 754 753
e 756 753
e 757 753
e 755 754
e 756 754
e 757 754
e 758 754
e 757 755
e 758 755
e 757 756
e 758 757
